\ Model RRP_copy
\ LP format - for model browsing. Use MPS format to capture full model detail.
Maximize
 
Subject To
 R934: yp_kim[0,2,0] = 1
 R960: 0.1 yp_kim[0,2,0] <= 0
Bounds
Binaries
 yp_kim[0,2,0]
End
